
Welcome to IBM(R) ILOG(R) CPLEX(R) Interactive Optimizer 22.1.1.0
  with Simplex, Mixed Integer & Barrier Optimizers
5725-A06 5725-A29 5724-Y48 5724-Y49 5724-Y54 5724-Y55 5655-Y21
Copyright IBM Corp. 1988, 2022.  All Rights Reserved.

Type 'help' for a list of available commands.
Type 'help' followed by a command name for more
information on commands.

CPLEX> Selected objective sense:  MINIMIZE
Selected objective  name:  00000000
Selected RHS        name:  RHS1
Selected bound      name:  BOUND
Problem 'ee.mps' read.
Read time = 0.02 sec. (3.14 ticks)
CPLEX> New value for time limit in seconds: 7200
CPLEX> New value for parallel optimization mode: -1
CPLEX> New value for default parallel thread count: 40
CPLEX> New value for mixed integer optimality gap tolerance: 1e-13
CPLEX> Version identifier: 22.1.1.0 | 2022-11-28 | 9160aff4d
CPXPARAM_Threads                                 40
CPXPARAM_Parallel                                -1
CPXPARAM_TimeLimit                               7200
CPXPARAM_MIP_Tolerances_MIPGap                   1e-13
Found incumbent of value 0.000000 after 0.00 sec. (0.31 ticks)
Tried aggregator 2 times.
MIP Presolve eliminated 180 rows and 2745 columns.
MIP Presolve modified 5862 coefficients.
Aggregator did 713 substitutions.
Reduced MIP has 3623 rows, 7739 columns, and 28643 nonzeros.
Reduced MIP has 7739 binaries, 0 generals, 0 SOSs, and 0 indicators.
Presolve time = 0.06 sec. (68.56 ticks)
Probing time = 0.03 sec. (5.29 ticks)
Tried aggregator 1 time.
Detecting symmetries...
Reduced MIP has 3623 rows, 7739 columns, and 28643 nonzeros.
Reduced MIP has 7739 binaries, 0 generals, 0 SOSs, and 0 indicators.
Presolve time = 0.02 sec. (21.85 ticks)
Probing time = 0.02 sec. (5.11 ticks)
Clique table members: 18551.
MIP emphasis: balance optimality and feasibility.
MIP search method: dynamic search.
Parallel mode: opportunistic, using up to 40 threads.
Root relaxation solution time = 0.10 sec. (92.10 ticks)

        Nodes                                         Cuts/
   Node  Left     Objective  IInf  Best Integer    Best Bound    ItCnt     Gap

*     0+    0                            0.0000  -1.31000e+13              --- 
*     0+    0                      -4.29000e+12  -1.31000e+13           205.36%
*     0+    0                      -7.59000e+12  -1.31000e+13            72.60%
      0     0  -1.30900e+13    30  -7.59000e+12  -1.30900e+13     2275   72.46%
*     0+    0                      -1.30900e+13  -1.30900e+13             0.00%
      0     0  -1.30900e+13    55  -1.30900e+13      Cuts: 49     2415    0.00%
*     0+    0                      -1.30900e+13  -1.30900e+13             0.00%
      0     0  -1.30900e+13   179  -1.30900e+13      Cuts: 58     2692    0.00%
*     0+    0                      -1.30900e+13  -1.30900e+13             0.00%
      0     0  -1.00000e+75     0  -1.30900e+13  -1.30900e+13     2692    0.00%

Repeating presolve.
Tried aggregator 2 times.
MIP Presolve eliminated 1448 rows and 3541 columns.
MIP Presolve added 6 rows and 0 columns.
MIP Presolve modified 74 coefficients.
Aggregator did 442 substitutions.
Reduced MIP has 1739 rows, 3711 columns, and 13098 nonzeros.
Reduced MIP has 3711 binaries, 0 generals, 0 SOSs, and 0 indicators.
Presolve time = 0.05 sec. (57.48 ticks)
Probing fixed 73 vars, tightened 0 bounds.
Probing time = 0.02 sec. (14.21 ticks)
Tried aggregator 2 times.
MIP Presolve eliminated 70 rows and 98 columns.
Aggregator did 31 substitutions.
Reduced MIP has 1638 rows, 3581 columns, and 12551 nonzeros.
Reduced MIP has 3581 binaries, 0 generals, 0 SOSs, and 0 indicators.
Presolve time = 0.02 sec. (20.04 ticks)
Probing time = 0.03 sec. (10.94 ticks)
Tried aggregator 1 time.
Detecting symmetries...
MIP Presolve eliminated 10 rows and 5 columns.
Reduced MIP has 1628 rows, 3576 columns, and 12521 nonzeros.
Reduced MIP has 3576 binaries, 0 generals, 0 SOSs, and 0 indicators.
Presolve time = 0.02 sec. (13.79 ticks)
Represolve time = 0.17 sec. (133.89 ticks)
Probing time = 0.02 sec. (4.89 ticks)
Clique table members: 8434.
MIP emphasis: balance optimality and feasibility.
MIP search method: dynamic search.
Parallel mode: opportunistic, using up to 40 threads.
Root relaxation solution time = 0.06 sec. (38.65 ticks)

        Nodes                                         Cuts/
   Node  Left     Objective  IInf  Best Integer    Best Bound    ItCnt     Gap

*     0+    0                      -1.30900e+13  -1.30900e+13             0.00%
      0     0  -1.30900e+13   124  -1.30900e+13  -1.30900e+13     3858    0.00%
      0     0  -1.30900e+13   168  -1.30900e+13      Cuts: 89     3992    0.00%
      0     0  -1.30900e+13   140  -1.30900e+13      Cuts: 74     4266    0.00%
      0     0  -1.30900e+13   117  -1.30900e+13      Cuts: 41     4995    0.00%
      0     0  -1.30900e+13   135  -1.30900e+13      Cuts: 29     5169    0.00%
*     0+    0                      -1.30900e+13  -1.30900e+13             0.00%
      0     2  -1.30900e+13   128  -1.30900e+13  -1.30900e+13     5169    0.00%
Elapsed time = 1.57 sec. (1011.88 ticks, tree = 0.02 MB, solutions = 7)
    356    18        cutoff        -1.30900e+13  -1.30900e+13    43198    0.00%

GUB cover cuts applied:  1
Clique cuts applied:  18
Cover cuts applied:  243
Flow cuts applied:  15
Mixed integer rounding cuts applied:  27
Zero-half cuts applied:  22
Lift and project cuts applied:  19
Gomory fractional cuts applied:  16

Root node processing (before b&c):
  Real time             =    1.17 sec. (1011.15 ticks)
Parallel b&c, 40 threads:
  Real time             =    1.16 sec. (317.83 ticks)
  Sync time (average)   =    0.70 sec.
  Wait time (average)   =    0.00 sec.
                          ------------
Total (root+branch&cut) =    2.33 sec. (1328.98 ticks)

Solution pool: 7 solutions saved.

MIP - Integer optimal solution:  Objective = -1.3089999590e+13
Solution time =    2.40 sec.  Iterations = 45675  Nodes = 381
Deterministic time = 1329.01 ticks  (553.96 ticks/sec)

CPLEX> Solution 'p8' written to file 'ee.sol'.
CPLEX> 